proyfinal/src/viki/013/experimentInOfficeAgust.take6.output/0cca5129-0466-465c-b35d-df6dab1d50dd.als.dat
{'cnf.clauses': '118081',
 'cnf.totvars': '69608',
 'conflict literals': '128',
 'conflicts': '40',
 'decisions': '13715',
 'memused.mb': '16.73',
 'outcome': 'UNSAT',
 'propagations': '46556',
 'restarts': '1',
 'solver.msecs': 28,
 'task.msecs': 89}
