proyfinal/src/viki/013/experimentInOfficeAgust.take6.output/0cca5129-0466-465c-b35d-df6dab1d50dd.als.out
Reading from standard input... Use '--help' for help.
============================[ Problem Statistics ]=============================
|                                                                             |
|  Number of variables:         69608                                         |
|  Number of clauses:          118081                                         |
|  Parse time:                   0.02 s                                       |
|                                                                             |
============================[ Search Statistics ]==============================
| Conflicts |          ORIGINAL         |          LEARNT          | Progress |
|           |    Vars  Clauses Literals |    Limit  Clauses Lit/Cl |          |
===============================================================================
===============================================================================
restarts              : 1
conflicts             : 40             (1387 /sec)
decisions             : 13715          (0.00 % random) (475604 /sec)
propagations          : 46556          (1614454 /sec)
conflict literals     : 128            (0.00 % deleted)
Memory used           : 16.73 MB
CPU time              : 0.028837 s

UNSATISFIABLE
